<number of tasks>
50

<cycle time>
1000

<order strength>
0.597


<task times>
1 174
2 161
3 48
4 94
5 140
6 261
7 256
8 54
9 86
10 58
11 34
12 259
13 38
14 119
15 116
16 46
17 107
18 78
19 207
20 152
21 68
22 188
23 134
24 150
25 42
26 157
27 63
28 37
29 111
30 63
31 68
32 194
33 126
34 98
35 135
36 156
37 28
38 45
39 126
40 26
41 24
42 102
43 332
44 49
45 232
46 177
47 94
48 130
49 104
50 78

<precedence relations>
1,5
2,6
2,15
3,7
3,8
4,8
4,9
5,11
6,12
7,13
8,10
8,15
8,16
9,14
9,15
9,16
10,17
11,18
12,20
13,21
14,19
15,20
15,21
16,20
16,21
17,22
18,25
19,23
20,24
20,25
20,26
20,27
21,24
21,25
21,26
21,27
22,30
23,29
24,28
24,30
24,31
24,34
25,30
25,31
25,34
26,30
26,31
27,30
27,31
27,34
28,32
29,34
30,39
31,33
31,35
32,36
33,37
34,38
34,40
34,42
35,39
35,40
36,42
37,42
38,41
39,42
39,43
39,45
40,44
40,48
40,50
41,46
42,46
42,48
43,47
46,49
46,50
48,49

<end>
